SumColouring/MiniZinc model/Experiments/10_0.90_3.col.dzn
% Data file generated from RandomInstances/10_0.90_3.col DIMACS file
size = 10;

chi = 8;

adjacency = [|0,1,1,1,1,1,1,1,1,0,
|1,0,1,1,1,1,1,1,1,1,
|1,1,0,1,1,1,1,1,1,1,
|1,1,1,0,0,1,1,1,1,1,
|1,1,1,0,0,1,0,1,1,0,
|1,1,1,1,1,0,1,1,1,1,
|1,1,1,1,0,1,0,1,1,1,
|1,1,1,1,1,1,1,0,1,1,
|1,1,1,1,1,1,1,1,0,1,
|0,1,1,1,0,1,1,1,1,0,
|];